Maximize
  - 2.73277500782 edge_0_2_0_0 - 1.9094408863054 edge_0_3_0_0
   - 3.8479635350015 edge_0_4_0_0 - 3.750633723609 edge_0_5_0_0
   - 0.8843663048144 edge_0_6_0_0 - 3.5525429465906 edge_0_7_0_0
   - 2.374998032814 edge_0_8_0_0 - 2.0305019689824 edge_0_10_0_0
   - 3.5509197383772 edge_0_11_0_0 - 0.7950439025438 edge_0_19_0_0
   - 1.070362230003 edge_0_21_0_0 - 0.1361274595794395 edge_2_3_0_0
   + 0.0865199972245711 edge_2_4_0_0 - 0.4704441111474906 edge_2_5_0_0
   + 0.7101541817191092 edge_2_6_0_0 + 0.2785524469588104 edge_2_8_0_0
   + 0.2439908866068432 edge_2_9_0_0 - 0.2251692206581148 edge_2_10_0_0
   - 1.00158317372183 edge_2_19_0_0 - 0.0588661853770137 edge_2_21_0_0
   + 3.072823353307333 edge_3_2_0_0 + 2.440928888135746 edge_3_4_0_0
   - 0.1759917436390716 edge_3_5_0_0 + 0.3272345083727019 edge_3_6_0_0
   - 0.825965117014156 edge_3_7_0_0 + 0.0702503883564414 edge_3_8_0_0
   + 1.682208322032837 edge_3_9_0_0 + 0.6036575967462494 edge_3_10_0_0
   - 1.363762282261504 edge_3_11_0_0 - 1.270235524152124 edge_3_14_0_0
   + 0.6223436375314088 edge_3_16_0_0 - 3.113556679515657 edge_3_17_0_0
   - 0.020420455131663 edge_3_19_0_0 + 4.467843302468859 edge_3_22_0_0
   - 0.2106957406793357 edge_4_5_0_0 - 0.2530387805926646 edge_4_6_0_0
   - 0.3735445509676215 edge_4_10_0_0 - 0.7410386820037757 edge_5_2_0_0
   - 0.790370975326691 edge_5_3_0_0 + 0.0515797493145504 edge_5_4_0_0
   + 0.893957943365588 edge_5_6_0_0 + 0.6657557902427829 edge_5_7_0_0
   + 0.3517059884115863 edge_5_8_0_0 + 0.5931869686161024 edge_5_9_0_0
   + 0.4396748806394893 edge_5_10_0_0 - 0.2174040936253504 edge_5_11_0_0
   - 0.809916991333104 edge_5_14_0_0 + 0.0387486028736824 edge_5_16_0_0
   - 0.9863409526472544 edge_5_18_0_0 - 0.2114554384884395 edge_5_19_0_0
   + 0.2945233009258881 edge_5_22_0_0 + 1.629546444426171 edge_6_2_0_0
   + 0.0527978366414208 edge_6_3_0_0 + 0.738203608059637 edge_6_4_0_0
   + 1.476344212426677 edge_6_5_0_0 + 0.9375786021444442 edge_6_7_0_0
   + 1.879054145327388 edge_6_8_0_0 + 1.182819566700171 edge_6_9_0_0
   + 0.2610945091361502 edge_6_10_0_0 - 0.1418900118635304 edge_6_11_0_0
   - 0.0165808582690021 edge_6_14_0_0 + 0.4643433023638281 edge_6_16_0_0
   - 0.3798153873031789 edge_6_17_0_0 - 0.4649392257045685 edge_6_18_0_0
   + 0.1234074102311808 edge_6_19_0_0 - 0.1820741721571886 edge_6_20_0_0
   + 0.2205558797552063 edge_6_21_0_0 + 3.025517888158956 edge_6_22_0_0
   - 0.542704877022994 edge_7_2_0_0 - 0.435462099018225 edge_7_3_0_0
   - 0.0434170617089352 edge_7_4_0_0 - 0.040513901119576 edge_7_5_0_0
   + 0.7486546973324837 edge_7_6_0_0 + 0.9287892011717125 edge_7_8_0_0
   + 0.1747543638940237 edge_7_9_0_0 + 0.2417623315016221 edge_7_10_0_0
   - 0.2653773444340782 edge_7_19_0_0 + 0.0405870790075141 edge_8_2_0_0
   - 0.4192367530891735 edge_8_3_0_0 + 0.237038763233795 edge_8_4_0_0
   + 0.7729010351054246 edge_8_5_0_0 + 1.361638937920908 edge_8_6_0_0
   + 3.112787159752896 edge_8_7_0_0 + 1.668465654807597 edge_8_9_0_0
   + 0.6392112470476812 edge_8_10_0_0 + 0.2373088254526375 edge_8_11_0_0
   - 0.0981944951592933 edge_8_14_0_0 + 0.1779586609018881 edge_8_16_0_0
   - 0.6708146831667283 edge_8_17_0_0 - 0.4522022850216192 edge_8_18_0_0
   + 1.24369143510911 edge_8_19_0_0 - 0.0537343241709501 edge_8_20_0_0
   + 0.2248716114393794 edge_8_21_0_0 + 2.095604132292674 edge_8_22_0_0
   - 0.4157527894066418 edge_9_6_0_0 - 0.4074171898676414 edge_9_8_0_0
   - 0.2143242877685141 edge_9_10_0_0 - 0.5840647373591759 edge_10_2_0_0
   - 0.0308543171536817 edge_10_3_0_0 + 0.0701391910987102 edge_10_4_0_0
   + 1.106281634925546 edge_10_5_0_0 + 0.7303490324080405 edge_10_6_0_0
   + 0.7474635662690502 edge_10_7_0_0 + 1.125419871131199 edge_10_8_0_0
   + 1.235236734317094 edge_10_9_0_0 + 3.092307015808056 edge_10_11_0_0
   + 2.268182935265677 edge_10_14_0_0 + 2.044534026358824 edge_10_16_0_0
   + 0.3089030826570174 edge_10_17_0_0 + 0.5271028677812893 edge_10_18_0_0
   + 1.981394617362455 edge_10_19_0_0 + 4.374749427416113 edge_10_22_0_0
   - 0.5400636226783619 edge_11_3_0_0 - 0.3592342754555617 edge_11_6_0_0
   - 0.314870183938468 edge_11_7_0_0 - 0.4351197203178273 edge_11_8_0_0
   + 0.4384296819284964 edge_11_9_0_0 - 0.1237952347656594 edge_11_14_0_0
   + 0.0680889271913781 edge_11_16_0_0 - 0.7217958743952316 edge_11_17_0_0
   - 0.7852297548381222 edge_11_18_0_0 - 0.0040617053843441 edge_11_19_0_0
   - 0.4795192115588632 edge_14_2_0_0 - 0.3412034711761787 edge_14_6_0_0
   - 0.4986885216323766 edge_14_8_0_0 - 0.3643444289017563 edge_14_9_0_0
   + 0.2261793678880806 edge_14_11_0_0 + 0.6297270652493133 edge_14_16_0_0
   + 0.2689353787076522 edge_14_17_0_0 - 0.3355076120728785 edge_14_18_0_0
   + 0.251494776613055 edge_14_19_0_0 - 0.0595501765192124 edge_14_20_0_0
   + 0.1944526605366148 edge_14_21_0_0 + 0.8971574192822431 edge_14_22_0_0
   - 0.1212887877511323 edge_16_14_0_0 - 0.5492237935847932 edge_16_17_0_0
   - 0.5953174916465488 edge_16_18_0_0 - 0.810145201605223 edge_17_14_0_0
   - 0.3051479004848924 edge_17_18_0_0 + 0.2300135307605855 edge_17_22_0_0
   - 0.7365767807610271 edge_18_2_0_0 - 1.09027524305797 edge_18_3_0_0
   - 1.198163762137813 edge_18_4_0_0 - 0.6660825066299954 edge_18_7_0_0
   - 0.4079601276581126 edge_18_11_0_0 - 0.0819971035622339 edge_18_14_0_0
   + 0.0346159727187176 edge_18_16_0_0 + 0.5359614430449158 edge_18_17_0_0
   + 0.3019204371488599 edge_18_22_0_0 + 0.1056064260696723 edge_19_2_0_0
   - 0.6418067234119589 edge_19_3_0_0 - 0.9657832152862267 edge_19_4_0_0
   + 0.1880122525205135 edge_19_5_0_0 + 0.087557899109834 edge_19_6_0_0
   - 0.4962809728577347 edge_19_7_0_0 - 0.2214525350240613 edge_19_8_0_0
   + 0.3195157327630634 edge_19_9_0_0 + 0.9781478530465331 edge_19_10_0_0
   + 1.613784413433743 edge_19_11_0_0 + 1.688735739449931 edge_19_14_0_0
   + 1.136371838153159 edge_19_16_0_0 + 2.807437565882096 edge_19_17_0_0
   + 3.323552218873688 edge_19_18_0_0 + 0.2549211297536305 edge_19_20_0_0
   + 0.4847241126070733 edge_19_21_0_0 + 2.555037029692909 edge_19_22_0_0
   + 4.7806162218721028e-04 edge_20_14_0_0
   + 0.0831251813889746 edge_20_16_0_0 + 0.098248982475571 edge_20_19_0_0
   + 0.277132746319999 edge_20_21_0_0 + 0.4946967163748652 edge_20_22_0_0
   + 0.1853260855290005 edge_21_2_0_0 - 0.0162004303527965 edge_21_6_0_0
   - 0.274551456045496 edge_21_8_0_0 + 0.4013511938303318 edge_21_9_0_0
   + 0.0913975059788547 edge_21_14_0_0 + 0.339877212321714 edge_21_16_0_0
   + 0.1818075436788193 edge_21_19_0_0 + 0.4741779674278182 edge_21_20_0_0
   + 0.105022894433598 edge_21_21_0_0 + 1.039565402792137 edge_21_22_0_0
Subject To
 one_parent_1: = 1
 consume_one_flow_unit_1: = 1
 one_parent_2: edge_0_2_0_0 + edge_3_2_0_0 + edge_5_2_0_0 + edge_6_2_0_0
   + edge_7_2_0_0 + edge_8_2_0_0 + edge_10_2_0_0 + edge_14_2_0_0
   + edge_18_2_0_0 + edge_19_2_0_0 + edge_21_2_0_0 = 1
 consume_one_flow_unit_2: flow_0_2_0_0 - flow_2_3_0_0 - flow_2_4_0_0
   - flow_2_5_0_0 - flow_2_6_0_0 - flow_2_8_0_0 - flow_2_9_0_0
   - flow_2_10_0_0 - flow_2_19_0_0 - flow_2_21_0_0 + flow_3_2_0_0
   + flow_5_2_0_0 + flow_6_2_0_0 + flow_7_2_0_0 + flow_8_2_0_0
   + flow_10_2_0_0 + flow_14_2_0_0 + flow_18_2_0_0 + flow_19_2_0_0
   + flow_21_2_0_0 = 1
 one_parent_3: edge_0_3_0_0 + edge_2_3_0_0 + edge_5_3_0_0 + edge_6_3_0_0
   + edge_7_3_0_0 + edge_8_3_0_0 + edge_10_3_0_0 + edge_11_3_0_0
   + edge_18_3_0_0 + edge_19_3_0_0 = 1
 consume_one_flow_unit_3: flow_0_3_0_0 + flow_2_3_0_0 - flow_3_2_0_0
   - flow_3_4_0_0 - flow_3_5_0_0 - flow_3_6_0_0 - flow_3_7_0_0
   - flow_3_8_0_0 - flow_3_9_0_0 - flow_3_10_0_0 - flow_3_11_0_0
   - flow_3_14_0_0 - flow_3_16_0_0 - flow_3_17_0_0 - flow_3_19_0_0
   - flow_3_22_0_0 + flow_5_3_0_0 + flow_6_3_0_0 + flow_7_3_0_0
   + flow_8_3_0_0 + flow_10_3_0_0 + flow_11_3_0_0 + flow_18_3_0_0
   + flow_19_3_0_0 = 1
 one_parent_4: edge_0_4_0_0 + edge_2_4_0_0 + edge_3_4_0_0 + edge_5_4_0_0
   + edge_6_4_0_0 + edge_7_4_0_0 + edge_8_4_0_0 + edge_10_4_0_0
   + edge_18_4_0_0 + edge_19_4_0_0 = 1
 consume_one_flow_unit_4: flow_0_4_0_0 + flow_2_4_0_0 + flow_3_4_0_0
   - flow_4_5_0_0 - flow_4_6_0_0 - flow_4_10_0_0 + flow_5_4_0_0
   + flow_6_4_0_0 + flow_7_4_0_0 + flow_8_4_0_0 + flow_10_4_0_0
   + flow_18_4_0_0 + flow_19_4_0_0 = 1
 one_parent_5: edge_0_5_0_0 + edge_2_5_0_0 + edge_3_5_0_0 + edge_4_5_0_0
   + edge_6_5_0_0 + edge_7_5_0_0 + edge_8_5_0_0 + edge_10_5_0_0
   + edge_19_5_0_0 = 1
 consume_one_flow_unit_5: flow_0_5_0_0 + flow_2_5_0_0 + flow_3_5_0_0
   + flow_4_5_0_0 - flow_5_2_0_0 - flow_5_3_0_0 - flow_5_4_0_0
   - flow_5_6_0_0 - flow_5_7_0_0 - flow_5_8_0_0 - flow_5_9_0_0
   - flow_5_10_0_0 - flow_5_11_0_0 - flow_5_14_0_0 - flow_5_16_0_0
   - flow_5_18_0_0 - flow_5_19_0_0 - flow_5_22_0_0 + flow_6_5_0_0
   + flow_7_5_0_0 + flow_8_5_0_0 + flow_10_5_0_0 + flow_19_5_0_0 = 1
 one_parent_6: edge_0_6_0_0 + edge_2_6_0_0 + edge_3_6_0_0 + edge_4_6_0_0
   + edge_5_6_0_0 + edge_7_6_0_0 + edge_8_6_0_0 + edge_9_6_0_0
   + edge_10_6_0_0 + edge_11_6_0_0 + edge_14_6_0_0 + edge_19_6_0_0
   + edge_21_6_0_0 = 1
 consume_one_flow_unit_6: flow_0_6_0_0 + flow_2_6_0_0 + flow_3_6_0_0
   + flow_4_6_0_0 + flow_5_6_0_0 - flow_6_2_0_0 - flow_6_3_0_0
   - flow_6_4_0_0 - flow_6_5_0_0 - flow_6_7_0_0 - flow_6_8_0_0
   - flow_6_9_0_0 - flow_6_10_0_0 - flow_6_11_0_0 - flow_6_14_0_0
   - flow_6_16_0_0 - flow_6_17_0_0 - flow_6_18_0_0 - flow_6_19_0_0
   - flow_6_20_0_0 - flow_6_21_0_0 - flow_6_22_0_0 + flow_7_6_0_0
   + flow_8_6_0_0 + flow_9_6_0_0 + flow_10_6_0_0 + flow_11_6_0_0
   + flow_14_6_0_0 + flow_19_6_0_0 + flow_21_6_0_0 = 1
 one_parent_7: edge_0_7_0_0 + edge_3_7_0_0 + edge_5_7_0_0 + edge_6_7_0_0
   + edge_8_7_0_0 + edge_10_7_0_0 + edge_11_7_0_0 + edge_18_7_0_0
   + edge_19_7_0_0 = 1
 consume_one_flow_unit_7: flow_0_7_0_0 + flow_3_7_0_0 + flow_5_7_0_0
   + flow_6_7_0_0 - flow_7_2_0_0 - flow_7_3_0_0 - flow_7_4_0_0
   - flow_7_5_0_0 - flow_7_6_0_0 - flow_7_8_0_0 - flow_7_9_0_0
   - flow_7_10_0_0 - flow_7_19_0_0 + flow_8_7_0_0 + flow_10_7_0_0
   + flow_11_7_0_0 + flow_18_7_0_0 + flow_19_7_0_0 = 1
 one_parent_8: edge_0_8_0_0 + edge_2_8_0_0 + edge_3_8_0_0 + edge_5_8_0_0
   + edge_6_8_0_0 + edge_7_8_0_0 + edge_9_8_0_0 + edge_10_8_0_0
   + edge_11_8_0_0 + edge_14_8_0_0 + edge_19_8_0_0 + edge_21_8_0_0 = 1
 consume_one_flow_unit_8: flow_0_8_0_0 + flow_2_8_0_0 + flow_3_8_0_0
   + flow_5_8_0_0 + flow_6_8_0_0 + flow_7_8_0_0 - flow_8_2_0_0
   - flow_8_3_0_0 - flow_8_4_0_0 - flow_8_5_0_0 - flow_8_6_0_0
   - flow_8_7_0_0 - flow_8_9_0_0 - flow_8_10_0_0 - flow_8_11_0_0
   - flow_8_14_0_0 - flow_8_16_0_0 - flow_8_17_0_0 - flow_8_18_0_0
   - flow_8_19_0_0 - flow_8_20_0_0 - flow_8_21_0_0 - flow_8_22_0_0
   + flow_9_8_0_0 + flow_10_8_0_0 + flow_11_8_0_0 + flow_14_8_0_0
   + flow_19_8_0_0 + flow_21_8_0_0 = 1
 one_parent_9: edge_2_9_0_0 + edge_3_9_0_0 + edge_5_9_0_0 + edge_6_9_0_0
   + edge_7_9_0_0 + edge_8_9_0_0 + edge_10_9_0_0 + edge_11_9_0_0
   + edge_14_9_0_0 + edge_19_9_0_0 + edge_21_9_0_0 = 1
 consume_one_flow_unit_9: flow_2_9_0_0 + flow_3_9_0_0 + flow_5_9_0_0
   + flow_6_9_0_0 + flow_7_9_0_0 + flow_8_9_0_0 - flow_9_6_0_0
   - flow_9_8_0_0 - flow_9_10_0_0 + flow_10_9_0_0 + flow_11_9_0_0
   + flow_14_9_0_0 + flow_19_9_0_0 + flow_21_9_0_0 = 1
 one_parent_10: edge_0_10_0_0 + edge_2_10_0_0 + edge_3_10_0_0
   + edge_4_10_0_0 + edge_5_10_0_0 + edge_6_10_0_0 + edge_7_10_0_0
   + edge_8_10_0_0 + edge_9_10_0_0 + edge_19_10_0_0 = 1
 consume_one_flow_unit_10: flow_0_10_0_0 + flow_2_10_0_0 + flow_3_10_0_0
   + flow_4_10_0_0 + flow_5_10_0_0 + flow_6_10_0_0 + flow_7_10_0_0
   + flow_8_10_0_0 + flow_9_10_0_0 - flow_10_2_0_0 - flow_10_3_0_0
   - flow_10_4_0_0 - flow_10_5_0_0 - flow_10_6_0_0 - flow_10_7_0_0
   - flow_10_8_0_0 - flow_10_9_0_0 - flow_10_11_0_0 - flow_10_14_0_0
   - flow_10_16_0_0 - flow_10_17_0_0 - flow_10_18_0_0 - flow_10_19_0_0
   - flow_10_22_0_0 + flow_19_10_0_0 = 1
 one_parent_11: edge_0_11_0_0 + edge_3_11_0_0 + edge_5_11_0_0
   + edge_6_11_0_0 + edge_8_11_0_0 + edge_10_11_0_0 + edge_14_11_0_0
   + edge_18_11_0_0 + edge_19_11_0_0 = 1
 consume_one_flow_unit_11: flow_0_11_0_0 + flow_3_11_0_0 + flow_5_11_0_0
   + flow_6_11_0_0 + flow_8_11_0_0 + flow_10_11_0_0 - flow_11_3_0_0
   - flow_11_6_0_0 - flow_11_7_0_0 - flow_11_8_0_0 - flow_11_9_0_0
   - flow_11_14_0_0 - flow_11_16_0_0 - flow_11_17_0_0 - flow_11_18_0_0
   - flow_11_19_0_0 + flow_14_11_0_0 + flow_18_11_0_0 + flow_19_11_0_0 = 1
 one_parent_12: = 1
 consume_one_flow_unit_12: = 1
 one_parent_13: = 1
 consume_one_flow_unit_13: = 1
 one_parent_14: edge_3_14_0_0 + edge_5_14_0_0 + edge_6_14_0_0
   + edge_8_14_0_0 + edge_10_14_0_0 + edge_11_14_0_0 + edge_16_14_0_0
   + edge_17_14_0_0 + edge_18_14_0_0 + edge_19_14_0_0 + edge_20_14_0_0
   + edge_21_14_0_0 = 1
 consume_one_flow_unit_14: flow_3_14_0_0 + flow_5_14_0_0 + flow_6_14_0_0
   + flow_8_14_0_0 + flow_10_14_0_0 + flow_11_14_0_0 - flow_14_2_0_0
   - flow_14_6_0_0 - flow_14_8_0_0 - flow_14_9_0_0 - flow_14_11_0_0
   - flow_14_16_0_0 - flow_14_17_0_0 - flow_14_18_0_0 - flow_14_19_0_0
   - flow_14_20_0_0 - flow_14_21_0_0 - flow_14_22_0_0 + flow_16_14_0_0
   + flow_17_14_0_0 + flow_18_14_0_0 + flow_19_14_0_0 + flow_20_14_0_0
   + flow_21_14_0_0 = 1
 one_parent_15: = 1
 consume_one_flow_unit_15: = 1
 one_parent_16: edge_3_16_0_0 + edge_5_16_0_0 + edge_6_16_0_0
   + edge_8_16_0_0 + edge_10_16_0_0 + edge_11_16_0_0 + edge_14_16_0_0
   + edge_18_16_0_0 + edge_19_16_0_0 + edge_20_16_0_0 + edge_21_16_0_0 = 1
 consume_one_flow_unit_16: flow_3_16_0_0 + flow_5_16_0_0 + flow_6_16_0_0
   + flow_8_16_0_0 + flow_10_16_0_0 + flow_11_16_0_0 + flow_14_16_0_0
   - flow_16_14_0_0 - flow_16_17_0_0 - flow_16_18_0_0 + flow_18_16_0_0
   + flow_19_16_0_0 + flow_20_16_0_0 + flow_21_16_0_0 = 1
 one_parent_17: edge_3_17_0_0 + edge_6_17_0_0 + edge_8_17_0_0
   + edge_10_17_0_0 + edge_11_17_0_0 + edge_14_17_0_0 + edge_16_17_0_0
   + edge_18_17_0_0 + edge_19_17_0_0 = 1
 consume_one_flow_unit_17: flow_3_17_0_0 + flow_6_17_0_0 + flow_8_17_0_0
   + flow_10_17_0_0 + flow_11_17_0_0 + flow_14_17_0_0 + flow_16_17_0_0
   - flow_17_14_0_0 - flow_17_18_0_0 - flow_17_22_0_0 + flow_18_17_0_0
   + flow_19_17_0_0 = 1
 one_parent_18: edge_5_18_0_0 + edge_6_18_0_0 + edge_8_18_0_0
   + edge_10_18_0_0 + edge_11_18_0_0 + edge_14_18_0_0 + edge_16_18_0_0
   + edge_17_18_0_0 + edge_19_18_0_0 = 1
 consume_one_flow_unit_18: flow_5_18_0_0 + flow_6_18_0_0 + flow_8_18_0_0
   + flow_10_18_0_0 + flow_11_18_0_0 + flow_14_18_0_0 + flow_16_18_0_0
   + flow_17_18_0_0 - flow_18_2_0_0 - flow_18_3_0_0 - flow_18_4_0_0
   - flow_18_7_0_0 - flow_18_11_0_0 - flow_18_14_0_0 - flow_18_16_0_0
   - flow_18_17_0_0 - flow_18_22_0_0 + flow_19_18_0_0 = 1
 one_parent_19: edge_0_19_0_0 + edge_2_19_0_0 + edge_3_19_0_0
   + edge_5_19_0_0 + edge_6_19_0_0 + edge_7_19_0_0 + edge_8_19_0_0
   + edge_10_19_0_0 + edge_11_19_0_0 + edge_14_19_0_0 + edge_20_19_0_0
   + edge_21_19_0_0 = 1
 consume_one_flow_unit_19: flow_0_19_0_0 + flow_2_19_0_0 + flow_3_19_0_0
   + flow_5_19_0_0 + flow_6_19_0_0 + flow_7_19_0_0 + flow_8_19_0_0
   + flow_10_19_0_0 + flow_11_19_0_0 + flow_14_19_0_0 - flow_19_2_0_0
   - flow_19_3_0_0 - flow_19_4_0_0 - flow_19_5_0_0 - flow_19_6_0_0
   - flow_19_7_0_0 - flow_19_8_0_0 - flow_19_9_0_0 - flow_19_10_0_0
   - flow_19_11_0_0 - flow_19_14_0_0 - flow_19_16_0_0 - flow_19_17_0_0
   - flow_19_18_0_0 - flow_19_20_0_0 - flow_19_21_0_0 - flow_19_22_0_0
   + flow_20_19_0_0 + flow_21_19_0_0 = 1
 one_parent_20: edge_6_20_0_0 + edge_8_20_0_0 + edge_14_20_0_0
   + edge_19_20_0_0 + edge_21_20_0_0 = 1
 consume_one_flow_unit_20: flow_6_20_0_0 + flow_8_20_0_0 + flow_14_20_0_0
   + flow_19_20_0_0 - flow_20_14_0_0 - flow_20_16_0_0 - flow_20_19_0_0
   - flow_20_21_0_0 - flow_20_22_0_0 + flow_21_20_0_0 = 1
 one_parent_21: edge_0_21_0_0 + edge_2_21_0_0 + edge_6_21_0_0
   + edge_8_21_0_0 + edge_14_21_0_0 + edge_19_21_0_0 + edge_20_21_0_0
   + edge_21_21_0_0 = 1
 consume_one_flow_unit_21: flow_0_21_0_0 + flow_2_21_0_0 + flow_6_21_0_0
   + flow_8_21_0_0 + flow_14_21_0_0 + flow_19_21_0_0 + flow_20_21_0_0
   - flow_21_2_0_0 - flow_21_6_0_0 - flow_21_8_0_0 - flow_21_9_0_0
   - flow_21_14_0_0 - flow_21_16_0_0 - flow_21_19_0_0 - flow_21_20_0_0
   - flow_21_22_0_0 = 1
 one_parent_22: edge_3_22_0_0 + edge_5_22_0_0 + edge_6_22_0_0
   + edge_8_22_0_0 + edge_10_22_0_0 + edge_14_22_0_0 + edge_17_22_0_0
   + edge_18_22_0_0 + edge_19_22_0_0 + edge_20_22_0_0 + edge_21_22_0_0 = 1
 consume_one_flow_unit_22: flow_3_22_0_0 + flow_5_22_0_0 + flow_6_22_0_0
   + flow_8_22_0_0 + flow_10_22_0_0 + flow_14_22_0_0 + flow_17_22_0_0
   + flow_18_22_0_0 + flow_19_22_0_0 + flow_20_22_0_0 + flow_21_22_0_0 = 1
 root_flow: flow_0_2_0_0 + flow_0_3_0_0 + flow_0_4_0_0 + flow_0_5_0_0
   + flow_0_6_0_0 + flow_0_7_0_0 + flow_0_8_0_0 + flow_0_10_0_0
   + flow_0_11_0_0 + flow_0_19_0_0 + flow_0_21_0_0 = 22
 inactive_no_flow_0_2_0_0: flow_0_2_0_0 - 1000 edge_0_2_0_0 <= 0
 inactive_no_flow_0_3_0_0: flow_0_3_0_0 - 1000 edge_0_3_0_0 <= 0
 inactive_no_flow_0_4_0_0: flow_0_4_0_0 - 1000 edge_0_4_0_0 <= 0
 inactive_no_flow_0_5_0_0: flow_0_5_0_0 - 1000 edge_0_5_0_0 <= 0
 inactive_no_flow_0_6_0_0: flow_0_6_0_0 - 1000 edge_0_6_0_0 <= 0
 inactive_no_flow_0_7_0_0: flow_0_7_0_0 - 1000 edge_0_7_0_0 <= 0
 inactive_no_flow_0_8_0_0: flow_0_8_0_0 - 1000 edge_0_8_0_0 <= 0
 inactive_no_flow_0_10_0_0: flow_0_10_0_0 - 1000 edge_0_10_0_0 <= 0
 inactive_no_flow_0_11_0_0: flow_0_11_0_0 - 1000 edge_0_11_0_0 <= 0
 inactive_no_flow_0_19_0_0: flow_0_19_0_0 - 1000 edge_0_19_0_0 <= 0
 inactive_no_flow_0_21_0_0: flow_0_21_0_0 - 1000 edge_0_21_0_0 <= 0
 inactive_no_flow_2_3_0_0: flow_2_3_0_0 - 1000 edge_2_3_0_0 <= 0
 inactive_no_flow_2_4_0_0: flow_2_4_0_0 - 1000 edge_2_4_0_0 <= 0
 inactive_no_flow_2_5_0_0: flow_2_5_0_0 - 1000 edge_2_5_0_0 <= 0
 inactive_no_flow_2_6_0_0: flow_2_6_0_0 - 1000 edge_2_6_0_0 <= 0
 inactive_no_flow_2_8_0_0: flow_2_8_0_0 - 1000 edge_2_8_0_0 <= 0
 inactive_no_flow_2_9_0_0: flow_2_9_0_0 - 1000 edge_2_9_0_0 <= 0
 inactive_no_flow_2_10_0_0: flow_2_10_0_0 - 1000 edge_2_10_0_0 <= 0
 inactive_no_flow_2_19_0_0: flow_2_19_0_0 - 1000 edge_2_19_0_0 <= 0
 inactive_no_flow_2_21_0_0: flow_2_21_0_0 - 1000 edge_2_21_0_0 <= 0
 inactive_no_flow_3_2_0_0: flow_3_2_0_0 - 1000 edge_3_2_0_0 <= 0
 inactive_no_flow_3_4_0_0: flow_3_4_0_0 - 1000 edge_3_4_0_0 <= 0
 inactive_no_flow_3_5_0_0: flow_3_5_0_0 - 1000 edge_3_5_0_0 <= 0
 inactive_no_flow_3_6_0_0: flow_3_6_0_0 - 1000 edge_3_6_0_0 <= 0
 inactive_no_flow_3_7_0_0: flow_3_7_0_0 - 1000 edge_3_7_0_0 <= 0
 inactive_no_flow_3_8_0_0: flow_3_8_0_0 - 1000 edge_3_8_0_0 <= 0
 inactive_no_flow_3_9_0_0: flow_3_9_0_0 - 1000 edge_3_9_0_0 <= 0
 inactive_no_flow_3_10_0_0: flow_3_10_0_0 - 1000 edge_3_10_0_0 <= 0
 inactive_no_flow_3_11_0_0: flow_3_11_0_0 - 1000 edge_3_11_0_0 <= 0
 inactive_no_flow_3_14_0_0: flow_3_14_0_0 - 1000 edge_3_14_0_0 <= 0
 inactive_no_flow_3_16_0_0: flow_3_16_0_0 - 1000 edge_3_16_0_0 <= 0
 inactive_no_flow_3_17_0_0: flow_3_17_0_0 - 1000 edge_3_17_0_0 <= 0
 inactive_no_flow_3_19_0_0: flow_3_19_0_0 - 1000 edge_3_19_0_0 <= 0
 inactive_no_flow_3_22_0_0: flow_3_22_0_0 - 1000 edge_3_22_0_0 <= 0
 inactive_no_flow_4_5_0_0: flow_4_5_0_0 - 1000 edge_4_5_0_0 <= 0
 inactive_no_flow_4_6_0_0: flow_4_6_0_0 - 1000 edge_4_6_0_0 <= 0
 inactive_no_flow_4_10_0_0: flow_4_10_0_0 - 1000 edge_4_10_0_0 <= 0
 inactive_no_flow_5_2_0_0: flow_5_2_0_0 - 1000 edge_5_2_0_0 <= 0
 inactive_no_flow_5_3_0_0: flow_5_3_0_0 - 1000 edge_5_3_0_0 <= 0
 inactive_no_flow_5_4_0_0: flow_5_4_0_0 - 1000 edge_5_4_0_0 <= 0
 inactive_no_flow_5_6_0_0: flow_5_6_0_0 - 1000 edge_5_6_0_0 <= 0
 inactive_no_flow_5_7_0_0: flow_5_7_0_0 - 1000 edge_5_7_0_0 <= 0
 inactive_no_flow_5_8_0_0: flow_5_8_0_0 - 1000 edge_5_8_0_0 <= 0
 inactive_no_flow_5_9_0_0: flow_5_9_0_0 - 1000 edge_5_9_0_0 <= 0
 inactive_no_flow_5_10_0_0: flow_5_10_0_0 - 1000 edge_5_10_0_0 <= 0
 inactive_no_flow_5_11_0_0: flow_5_11_0_0 - 1000 edge_5_11_0_0 <= 0
 inactive_no_flow_5_14_0_0: flow_5_14_0_0 - 1000 edge_5_14_0_0 <= 0
 inactive_no_flow_5_16_0_0: flow_5_16_0_0 - 1000 edge_5_16_0_0 <= 0
 inactive_no_flow_5_18_0_0: flow_5_18_0_0 - 1000 edge_5_18_0_0 <= 0
 inactive_no_flow_5_19_0_0: flow_5_19_0_0 - 1000 edge_5_19_0_0 <= 0
 inactive_no_flow_5_22_0_0: flow_5_22_0_0 - 1000 edge_5_22_0_0 <= 0
 inactive_no_flow_6_2_0_0: flow_6_2_0_0 - 1000 edge_6_2_0_0 <= 0
 inactive_no_flow_6_3_0_0: flow_6_3_0_0 - 1000 edge_6_3_0_0 <= 0
 inactive_no_flow_6_4_0_0: flow_6_4_0_0 - 1000 edge_6_4_0_0 <= 0
 inactive_no_flow_6_5_0_0: flow_6_5_0_0 - 1000 edge_6_5_0_0 <= 0
 inactive_no_flow_6_7_0_0: flow_6_7_0_0 - 1000 edge_6_7_0_0 <= 0
 inactive_no_flow_6_8_0_0: flow_6_8_0_0 - 1000 edge_6_8_0_0 <= 0
 inactive_no_flow_6_9_0_0: flow_6_9_0_0 - 1000 edge_6_9_0_0 <= 0
 inactive_no_flow_6_10_0_0: flow_6_10_0_0 - 1000 edge_6_10_0_0 <= 0
 inactive_no_flow_6_11_0_0: flow_6_11_0_0 - 1000 edge_6_11_0_0 <= 0
 inactive_no_flow_6_14_0_0: flow_6_14_0_0 - 1000 edge_6_14_0_0 <= 0
 inactive_no_flow_6_16_0_0: flow_6_16_0_0 - 1000 edge_6_16_0_0 <= 0
 inactive_no_flow_6_17_0_0: flow_6_17_0_0 - 1000 edge_6_17_0_0 <= 0
 inactive_no_flow_6_18_0_0: flow_6_18_0_0 - 1000 edge_6_18_0_0 <= 0
 inactive_no_flow_6_19_0_0: flow_6_19_0_0 - 1000 edge_6_19_0_0 <= 0
 inactive_no_flow_6_20_0_0: flow_6_20_0_0 - 1000 edge_6_20_0_0 <= 0
 inactive_no_flow_6_21_0_0: flow_6_21_0_0 - 1000 edge_6_21_0_0 <= 0
 inactive_no_flow_6_22_0_0: flow_6_22_0_0 - 1000 edge_6_22_0_0 <= 0
 inactive_no_flow_7_2_0_0: flow_7_2_0_0 - 1000 edge_7_2_0_0 <= 0
 inactive_no_flow_7_3_0_0: flow_7_3_0_0 - 1000 edge_7_3_0_0 <= 0
 inactive_no_flow_7_4_0_0: flow_7_4_0_0 - 1000 edge_7_4_0_0 <= 0
 inactive_no_flow_7_5_0_0: flow_7_5_0_0 - 1000 edge_7_5_0_0 <= 0
 inactive_no_flow_7_6_0_0: flow_7_6_0_0 - 1000 edge_7_6_0_0 <= 0
 inactive_no_flow_7_8_0_0: flow_7_8_0_0 - 1000 edge_7_8_0_0 <= 0
 inactive_no_flow_7_9_0_0: flow_7_9_0_0 - 1000 edge_7_9_0_0 <= 0
 inactive_no_flow_7_10_0_0: flow_7_10_0_0 - 1000 edge_7_10_0_0 <= 0
 inactive_no_flow_7_19_0_0: flow_7_19_0_0 - 1000 edge_7_19_0_0 <= 0
 inactive_no_flow_8_2_0_0: flow_8_2_0_0 - 1000 edge_8_2_0_0 <= 0
 inactive_no_flow_8_3_0_0: flow_8_3_0_0 - 1000 edge_8_3_0_0 <= 0
 inactive_no_flow_8_4_0_0: flow_8_4_0_0 - 1000 edge_8_4_0_0 <= 0
 inactive_no_flow_8_5_0_0: flow_8_5_0_0 - 1000 edge_8_5_0_0 <= 0
 inactive_no_flow_8_6_0_0: flow_8_6_0_0 - 1000 edge_8_6_0_0 <= 0
 inactive_no_flow_8_7_0_0: flow_8_7_0_0 - 1000 edge_8_7_0_0 <= 0
 inactive_no_flow_8_9_0_0: flow_8_9_0_0 - 1000 edge_8_9_0_0 <= 0
 inactive_no_flow_8_10_0_0: flow_8_10_0_0 - 1000 edge_8_10_0_0 <= 0
 inactive_no_flow_8_11_0_0: flow_8_11_0_0 - 1000 edge_8_11_0_0 <= 0
 inactive_no_flow_8_14_0_0: flow_8_14_0_0 - 1000 edge_8_14_0_0 <= 0
 inactive_no_flow_8_16_0_0: flow_8_16_0_0 - 1000 edge_8_16_0_0 <= 0
 inactive_no_flow_8_17_0_0: flow_8_17_0_0 - 1000 edge_8_17_0_0 <= 0
 inactive_no_flow_8_18_0_0: flow_8_18_0_0 - 1000 edge_8_18_0_0 <= 0
 inactive_no_flow_8_19_0_0: flow_8_19_0_0 - 1000 edge_8_19_0_0 <= 0
 inactive_no_flow_8_20_0_0: flow_8_20_0_0 - 1000 edge_8_20_0_0 <= 0
 inactive_no_flow_8_21_0_0: flow_8_21_0_0 - 1000 edge_8_21_0_0 <= 0
 inactive_no_flow_8_22_0_0: flow_8_22_0_0 - 1000 edge_8_22_0_0 <= 0
 inactive_no_flow_9_6_0_0: flow_9_6_0_0 - 1000 edge_9_6_0_0 <= 0
 inactive_no_flow_9_8_0_0: flow_9_8_0_0 - 1000 edge_9_8_0_0 <= 0
 inactive_no_flow_9_10_0_0: flow_9_10_0_0 - 1000 edge_9_10_0_0 <= 0
 inactive_no_flow_10_2_0_0: flow_10_2_0_0 - 1000 edge_10_2_0_0 <= 0
 inactive_no_flow_10_3_0_0: flow_10_3_0_0 - 1000 edge_10_3_0_0 <= 0
 inactive_no_flow_10_4_0_0: flow_10_4_0_0 - 1000 edge_10_4_0_0 <= 0
 inactive_no_flow_10_5_0_0: flow_10_5_0_0 - 1000 edge_10_5_0_0 <= 0
 inactive_no_flow_10_6_0_0: flow_10_6_0_0 - 1000 edge_10_6_0_0 <= 0
 inactive_no_flow_10_7_0_0: flow_10_7_0_0 - 1000 edge_10_7_0_0 <= 0
 inactive_no_flow_10_8_0_0: flow_10_8_0_0 - 1000 edge_10_8_0_0 <= 0
 inactive_no_flow_10_9_0_0: flow_10_9_0_0 - 1000 edge_10_9_0_0 <= 0
 inactive_no_flow_10_11_0_0: flow_10_11_0_0 - 1000 edge_10_11_0_0 <= 0
 inactive_no_flow_10_14_0_0: flow_10_14_0_0 - 1000 edge_10_14_0_0 <= 0
 inactive_no_flow_10_16_0_0: flow_10_16_0_0 - 1000 edge_10_16_0_0 <= 0
 inactive_no_flow_10_17_0_0: flow_10_17_0_0 - 1000 edge_10_17_0_0 <= 0
 inactive_no_flow_10_18_0_0: flow_10_18_0_0 - 1000 edge_10_18_0_0 <= 0
 inactive_no_flow_10_19_0_0: flow_10_19_0_0 - 1000 edge_10_19_0_0 <= 0
 inactive_no_flow_10_22_0_0: flow_10_22_0_0 - 1000 edge_10_22_0_0 <= 0
 inactive_no_flow_11_3_0_0: flow_11_3_0_0 - 1000 edge_11_3_0_0 <= 0
 inactive_no_flow_11_6_0_0: flow_11_6_0_0 - 1000 edge_11_6_0_0 <= 0
 inactive_no_flow_11_7_0_0: flow_11_7_0_0 - 1000 edge_11_7_0_0 <= 0
 inactive_no_flow_11_8_0_0: flow_11_8_0_0 - 1000 edge_11_8_0_0 <= 0
 inactive_no_flow_11_9_0_0: flow_11_9_0_0 - 1000 edge_11_9_0_0 <= 0
 inactive_no_flow_11_14_0_0: flow_11_14_0_0 - 1000 edge_11_14_0_0 <= 0
 inactive_no_flow_11_16_0_0: flow_11_16_0_0 - 1000 edge_11_16_0_0 <= 0
 inactive_no_flow_11_17_0_0: flow_11_17_0_0 - 1000 edge_11_17_0_0 <= 0
 inactive_no_flow_11_18_0_0: flow_11_18_0_0 - 1000 edge_11_18_0_0 <= 0
 inactive_no_flow_11_19_0_0: flow_11_19_0_0 - 1000 edge_11_19_0_0 <= 0
 inactive_no_flow_14_2_0_0: flow_14_2_0_0 - 1000 edge_14_2_0_0 <= 0
 inactive_no_flow_14_6_0_0: flow_14_6_0_0 - 1000 edge_14_6_0_0 <= 0
 inactive_no_flow_14_8_0_0: flow_14_8_0_0 - 1000 edge_14_8_0_0 <= 0
 inactive_no_flow_14_9_0_0: flow_14_9_0_0 - 1000 edge_14_9_0_0 <= 0
 inactive_no_flow_14_11_0_0: flow_14_11_0_0 - 1000 edge_14_11_0_0 <= 0
 inactive_no_flow_14_16_0_0: flow_14_16_0_0 - 1000 edge_14_16_0_0 <= 0
 inactive_no_flow_14_17_0_0: flow_14_17_0_0 - 1000 edge_14_17_0_0 <= 0
 inactive_no_flow_14_18_0_0: flow_14_18_0_0 - 1000 edge_14_18_0_0 <= 0
 inactive_no_flow_14_19_0_0: flow_14_19_0_0 - 1000 edge_14_19_0_0 <= 0
 inactive_no_flow_14_20_0_0: flow_14_20_0_0 - 1000 edge_14_20_0_0 <= 0
 inactive_no_flow_14_21_0_0: flow_14_21_0_0 - 1000 edge_14_21_0_0 <= 0
 inactive_no_flow_14_22_0_0: flow_14_22_0_0 - 1000 edge_14_22_0_0 <= 0
 inactive_no_flow_16_14_0_0: flow_16_14_0_0 - 1000 edge_16_14_0_0 <= 0
 inactive_no_flow_16_17_0_0: flow_16_17_0_0 - 1000 edge_16_17_0_0 <= 0
 inactive_no_flow_16_18_0_0: flow_16_18_0_0 - 1000 edge_16_18_0_0 <= 0
 inactive_no_flow_17_14_0_0: flow_17_14_0_0 - 1000 edge_17_14_0_0 <= 0
 inactive_no_flow_17_18_0_0: flow_17_18_0_0 - 1000 edge_17_18_0_0 <= 0
 inactive_no_flow_17_22_0_0: flow_17_22_0_0 - 1000 edge_17_22_0_0 <= 0
 inactive_no_flow_18_2_0_0: flow_18_2_0_0 - 1000 edge_18_2_0_0 <= 0
 inactive_no_flow_18_3_0_0: flow_18_3_0_0 - 1000 edge_18_3_0_0 <= 0
 inactive_no_flow_18_4_0_0: flow_18_4_0_0 - 1000 edge_18_4_0_0 <= 0
 inactive_no_flow_18_7_0_0: flow_18_7_0_0 - 1000 edge_18_7_0_0 <= 0
 inactive_no_flow_18_11_0_0: flow_18_11_0_0 - 1000 edge_18_11_0_0 <= 0
 inactive_no_flow_18_14_0_0: flow_18_14_0_0 - 1000 edge_18_14_0_0 <= 0
 inactive_no_flow_18_16_0_0: flow_18_16_0_0 - 1000 edge_18_16_0_0 <= 0
 inactive_no_flow_18_17_0_0: flow_18_17_0_0 - 1000 edge_18_17_0_0 <= 0
 inactive_no_flow_18_22_0_0: flow_18_22_0_0 - 1000 edge_18_22_0_0 <= 0
 inactive_no_flow_19_2_0_0: flow_19_2_0_0 - 1000 edge_19_2_0_0 <= 0
 inactive_no_flow_19_3_0_0: flow_19_3_0_0 - 1000 edge_19_3_0_0 <= 0
 inactive_no_flow_19_4_0_0: flow_19_4_0_0 - 1000 edge_19_4_0_0 <= 0
 inactive_no_flow_19_5_0_0: flow_19_5_0_0 - 1000 edge_19_5_0_0 <= 0
 inactive_no_flow_19_6_0_0: flow_19_6_0_0 - 1000 edge_19_6_0_0 <= 0
 inactive_no_flow_19_7_0_0: flow_19_7_0_0 - 1000 edge_19_7_0_0 <= 0
 inactive_no_flow_19_8_0_0: flow_19_8_0_0 - 1000 edge_19_8_0_0 <= 0
 inactive_no_flow_19_9_0_0: flow_19_9_0_0 - 1000 edge_19_9_0_0 <= 0
 inactive_no_flow_19_10_0_0: flow_19_10_0_0 - 1000 edge_19_10_0_0 <= 0
 inactive_no_flow_19_11_0_0: flow_19_11_0_0 - 1000 edge_19_11_0_0 <= 0
 inactive_no_flow_19_14_0_0: flow_19_14_0_0 - 1000 edge_19_14_0_0 <= 0
 inactive_no_flow_19_16_0_0: flow_19_16_0_0 - 1000 edge_19_16_0_0 <= 0
 inactive_no_flow_19_17_0_0: flow_19_17_0_0 - 1000 edge_19_17_0_0 <= 0
 inactive_no_flow_19_18_0_0: flow_19_18_0_0 - 1000 edge_19_18_0_0 <= 0
 inactive_no_flow_19_20_0_0: flow_19_20_0_0 - 1000 edge_19_20_0_0 <= 0
 inactive_no_flow_19_21_0_0: flow_19_21_0_0 - 1000 edge_19_21_0_0 <= 0
 inactive_no_flow_19_22_0_0: flow_19_22_0_0 - 1000 edge_19_22_0_0 <= 0
 inactive_no_flow_20_14_0_0: flow_20_14_0_0 - 1000 edge_20_14_0_0 <= 0
 inactive_no_flow_20_16_0_0: flow_20_16_0_0 - 1000 edge_20_16_0_0 <= 0
 inactive_no_flow_20_19_0_0: flow_20_19_0_0 - 1000 edge_20_19_0_0 <= 0
 inactive_no_flow_20_21_0_0: flow_20_21_0_0 - 1000 edge_20_21_0_0 <= 0
 inactive_no_flow_20_22_0_0: flow_20_22_0_0 - 1000 edge_20_22_0_0 <= 0
 inactive_no_flow_21_2_0_0: flow_21_2_0_0 - 1000 edge_21_2_0_0 <= 0
 inactive_no_flow_21_6_0_0: flow_21_6_0_0 - 1000 edge_21_6_0_0 <= 0
 inactive_no_flow_21_8_0_0: flow_21_8_0_0 - 1000 edge_21_8_0_0 <= 0
 inactive_no_flow_21_9_0_0: flow_21_9_0_0 - 1000 edge_21_9_0_0 <= 0
 inactive_no_flow_21_14_0_0: flow_21_14_0_0 - 1000 edge_21_14_0_0 <= 0
 inactive_no_flow_21_16_0_0: flow_21_16_0_0 - 1000 edge_21_16_0_0 <= 0
 inactive_no_flow_21_19_0_0: flow_21_19_0_0 - 1000 edge_21_19_0_0 <= 0
 inactive_no_flow_21_20_0_0: flow_21_20_0_0 - 1000 edge_21_20_0_0 <= 0
 inactive_no_flow_21_21_0_0: flow_21_21_0_0 - 1000 edge_21_21_0_0 <= 0
 inactive_no_flow_21_22_0_0: flow_21_22_0_0 - 1000 edge_21_22_0_0 <= 0
Bounds
Binaries
 edge_0_2_0_0 edge_0_3_0_0 edge_0_4_0_0 edge_0_5_0_0 edge_0_6_0_0
 edge_0_7_0_0 edge_0_8_0_0 edge_0_10_0_0 edge_0_11_0_0 edge_0_19_0_0
 edge_0_21_0_0 edge_2_3_0_0 edge_2_4_0_0 edge_2_5_0_0 edge_2_6_0_0
 edge_2_8_0_0 edge_2_9_0_0 edge_2_10_0_0 edge_2_19_0_0 edge_2_21_0_0
 edge_3_2_0_0 edge_3_4_0_0 edge_3_5_0_0 edge_3_6_0_0 edge_3_7_0_0
 edge_3_8_0_0 edge_3_9_0_0 edge_3_10_0_0 edge_3_11_0_0 edge_3_14_0_0
 edge_3_16_0_0 edge_3_17_0_0 edge_3_19_0_0 edge_3_22_0_0 edge_4_5_0_0
 edge_4_6_0_0 edge_4_10_0_0 edge_5_2_0_0 edge_5_3_0_0 edge_5_4_0_0
 edge_5_6_0_0 edge_5_7_0_0 edge_5_8_0_0 edge_5_9_0_0 edge_5_10_0_0
 edge_5_11_0_0 edge_5_14_0_0 edge_5_16_0_0 edge_5_18_0_0 edge_5_19_0_0
 edge_5_22_0_0 edge_6_2_0_0 edge_6_3_0_0 edge_6_4_0_0 edge_6_5_0_0
 edge_6_7_0_0 edge_6_8_0_0 edge_6_9_0_0 edge_6_10_0_0 edge_6_11_0_0
 edge_6_14_0_0 edge_6_16_0_0 edge_6_17_0_0 edge_6_18_0_0 edge_6_19_0_0
 edge_6_20_0_0 edge_6_21_0_0 edge_6_22_0_0 edge_7_2_0_0 edge_7_3_0_0
 edge_7_4_0_0 edge_7_5_0_0 edge_7_6_0_0 edge_7_8_0_0 edge_7_9_0_0
 edge_7_10_0_0 edge_7_19_0_0 edge_8_2_0_0 edge_8_3_0_0 edge_8_4_0_0
 edge_8_5_0_0 edge_8_6_0_0 edge_8_7_0_0 edge_8_9_0_0 edge_8_10_0_0
 edge_8_11_0_0 edge_8_14_0_0 edge_8_16_0_0 edge_8_17_0_0 edge_8_18_0_0
 edge_8_19_0_0 edge_8_20_0_0 edge_8_21_0_0 edge_8_22_0_0 edge_9_6_0_0
 edge_9_8_0_0 edge_9_10_0_0 edge_10_2_0_0 edge_10_3_0_0 edge_10_4_0_0
 edge_10_5_0_0 edge_10_6_0_0 edge_10_7_0_0 edge_10_8_0_0 edge_10_9_0_0
 edge_10_11_0_0 edge_10_14_0_0 edge_10_16_0_0 edge_10_17_0_0 edge_10_18_0_0
 edge_10_19_0_0 edge_10_22_0_0 edge_11_3_0_0 edge_11_6_0_0 edge_11_7_0_0
 edge_11_8_0_0 edge_11_9_0_0 edge_11_14_0_0 edge_11_16_0_0 edge_11_17_0_0
 edge_11_18_0_0 edge_11_19_0_0 edge_14_2_0_0 edge_14_6_0_0 edge_14_8_0_0
 edge_14_9_0_0 edge_14_11_0_0 edge_14_16_0_0 edge_14_17_0_0 edge_14_18_0_0
 edge_14_19_0_0 edge_14_20_0_0 edge_14_21_0_0 edge_14_22_0_0 edge_16_14_0_0
 edge_16_17_0_0 edge_16_18_0_0 edge_17_14_0_0 edge_17_18_0_0 edge_17_22_0_0
 edge_18_2_0_0 edge_18_3_0_0 edge_18_4_0_0 edge_18_7_0_0 edge_18_11_0_0
 edge_18_14_0_0 edge_18_16_0_0 edge_18_17_0_0 edge_18_22_0_0 edge_19_2_0_0
 edge_19_3_0_0 edge_19_4_0_0 edge_19_5_0_0 edge_19_6_0_0 edge_19_7_0_0
 edge_19_8_0_0 edge_19_9_0_0 edge_19_10_0_0 edge_19_11_0_0 edge_19_14_0_0
 edge_19_16_0_0 edge_19_17_0_0 edge_19_18_0_0 edge_19_20_0_0 edge_19_21_0_0
 edge_19_22_0_0 edge_20_14_0_0 edge_20_16_0_0 edge_20_19_0_0 edge_20_21_0_0
 edge_20_22_0_0 edge_21_2_0_0 edge_21_6_0_0 edge_21_8_0_0 edge_21_9_0_0
 edge_21_14_0_0 edge_21_16_0_0 edge_21_19_0_0 edge_21_20_0_0 edge_21_21_0_0
 edge_21_22_0_0
End
